
<<< setup


<<< generate

CPXPARAM_TimeLimit                               2
Tried aggregator 2 times.
MIP Presolve eliminated 9 rows and 9 columns.
Aggregator did 10 substitutions.
Reduced MIP has 111 rows, 181 columns, and 614 nonzeros.
Reduced MIP has 90 binaries, 91 generals, 0 SOSs, and 0 indicators.
Presolve time = 0,00 sec. (0,61 ticks)
Found incumbent of value 99,340860 after 0,00 sec. (1,27 ticks)
Probing fixed 7 vars, tightened 0 bounds.
Probing time = 0,00 sec. (0,36 ticks)
Cover probing fixed 0 vars, tightened 63 bounds.
Tried aggregator 1 time.
MIP Presolve eliminated 10 rows and 16 columns.
MIP Presolve modified 112 coefficients.
Reduced MIP has 101 rows, 165 columns, and 565 nonzeros.
Reduced MIP has 83 binaries, 82 generals, 0 SOSs, and 0 indicators.
Presolve time = 0,00 sec. (0,67 ticks)
Probing time = 0,00 sec. (0,30 ticks)
Clique table members: 19.
MIP emphasis: balance optimality and feasibility.
MIP search method: dynamic search.
Parallel mode: deterministic, using up to 4 threads.
Root relaxation solution time = 0,00 sec. (0,92 ticks)

        Nodes                                         Cuts/
   Node  Left     Objective  IInf  Best Integer    Best Bound    ItCnt     Gap

*     0+    0                           99,3409        0,0000           100,00%
      0     0       32,7587    28       99,3409       32,7587      120   67,02%
      0     0       35,6146    35       99,3409      Cuts: 50      158   64,15%
      0     0       41,0367    43       99,3409      Cuts: 25      213   58,69%
      0     0       41,0990    44       99,3409      Cuts: 13      220   58,63%
      0     0       41,1366    46       99,3409       Cuts: 5      224   58,59%
      0     0       41,3453    52       99,3409       Cuts: 8      247   58,38%
      0     0       41,3775    56       99,3409      Cuts: 16      258   58,35%
      0     0       41,4263    56       99,3409      Cuts: 11      273   58,30%
      0     0       41,4436    57       99,3409       Cuts: 8      284   58,28%
      0     0       41,5142    58       99,3409      Cuts: 10      296   58,21%
      0     0       41,5889    53       99,3409   ZeroHalf: 3      309   58,14%
      0     0       41,6251    58       99,3409       Cuts: 9      319   58,10%
      0     0       41,6696    59       99,3409       Cuts: 3      328   58,05%
      0     0       41,6794    57       99,3409   ZeroHalf: 6      334   58,04%
      0     0       41,7404    61       99,3409       Cuts: 6      352   57,98%
      0     0       41,7551    58       99,3409       Cuts: 7      368   57,97%
      0     0       41,7605    56       99,3409   ZeroHalf: 1      372   57,96%
      0     0       41,7605    57       99,3409   Flowcuts: 1      373   57,96%
*     0+    0                           49,7696       41,7605            16,09%
      0     0        cutoff             49,7696       49,7696      373    0,00%
Elapsed time = 0,13 sec. (64,35 ticks, tree = 0,01 MB, solutions = 2)

Cover cuts applied:  3
Implied bound cuts applied:  5
Flow cuts applied:  18
Zero-half cuts applied:  12
Lift and project cuts applied:  1
Gomory fractional cuts applied:  1

Root node processing (before b&c):
  Real time             =    0,13 sec. (64,37 ticks)
Parallel b&c, 4 threads:
  Real time             =    0,00 sec. (0,00 ticks)
  Sync time (average)   =    0,00 sec.
  Wait time (average)   =    0,00 sec.
                          ------------
Total (root+branch&cut) =    0,13 sec. (64,37 ticks)

<<< solve


OBJECTIVE: 49.76956
12/18/2018 23:52:22 352
solving time ~= 131.093994141
Done
 [[0 0 7 0 0 0 0 0 0 0]
         [8 0 0 0 0 0 0 0 0 0]
         [0 0 0 6 0 0 0 0 0 0]
         [0 0 0 0 0 5 0 0 0 0]
         [0 9 0 0 0 0 0 0 0 0]
         [0 0 0 0 0 0 0 0 4 0]
         [0 0 0 0 10 0 0 0 0 0]
         [0 0 0 0 0 0 1 0 0 0]
         [0 0 0 0 0 0 0 0 0 3]
         [0 0 0 0 0 0 0 2 0 0]]

<<< post process


<<< done

